(set-info :source |
 Generated by Alive 0.1
 More info in N. P. Lopes, D. Menendez, S. Nagarakatte, J. Regehr.
 Provably Correct Peephole Optimizations with Alive. In PLDI'15.
|)

(set-info :status unknown)
(declare-fun %B () (_ BitVec 23))
(declare-fun %A () (_ BitVec 23))
(assert
 (let ((?x79013 (bvxor %A (_ bv8388607 23))))
 (let ((?x88585 (bvxor ?x79013 %B)))
 (and (distinct (bvor (bvand %A %B) ?x88585) ?x88585) true))))
(check-sat)
